NAME : Gaspelle29-5-f.35601.tour
COMMENT : Length = 35601
COMMENT : Found by LKH-3 [Keld Helsgaun] Tue Dec 17 14:06:59 2024
TYPE : TOUR
DIMENSION : 39
TOUR_SECTION
1
35
2
18
21
20
17
16
15
23
28
26
19
13
14
22
12
36
3
37
4
24
25
27
8
9
7
10
6
11
29
30
34
32
33
31
38
5
39
-1
EOF
